# Menig hluta
set auglisingar := sjonV grein;

# Gagnartafla hluta
param: kostn naertil :=
sjonV  20000 1800000
grein  10000 1000000;

# Minstakost 10 einingar af sjonV
param minSeldAfSjon:= 10;
# Peningar sem á að nota við kaup á auglisingum
param eydsluPeningur:= 1000000;
